NAME : pr107cut50
COMMENT : 107-city problem (Padberg/Rinaldi)
TYPE : TSP
DIMENSION : 107
EDGE_WEIGHT_TYPE : EUC_2D
NODE_COORD_SECTION
1 8375 4700
2 8775 4700
3 8375 4900
4 8175 4900
5 8775 4900
6 8575 4900
7 8775 5400
8 8375 5450
9 8775 5600
10 8575 5600
11 8375 5650
12 8175 5650
13 8375 6200
14 8775 6200
15 8375 6400
16 8175 6400
17 8775 6400
18 8575 6400
19 8375 7000
20 8775 7000
21 8375 7200
22 8175 7200
23 8775 7200
24 8575 7200
25 8375 7800
26 8775 7800
27 8375 8000
28 8175 8000
29 8775 8000
30 8575 8000
31 8375 8700
32 8775 8700
33 8375 8900
34 8175 8900
35 8775 8900
36 8575 8900
37 8375 9600
38 8775 9600
39 8375 9800
40 8175 9800
41 8775 9800
42 8575 9800
43 8375 10500
44 8775 10450
45 8375 10700
46 8175 10700
47 8775 10650
48 8575 10650
49 8375 11300
50 8775 11300
EOF
